100
1000
260
252
248
243
243
238
237
236
236
227
223
217
216
207
207
207
204
203
200
198
197
195
188
177
172
170
169
168
168
165
162
159
157
153
150
150
149
148
145
144
143
142
138
137
126
126
126
124
123
122
121
121
116
114
113
112
110
109
108
106
105
101
101
99
80
78
78
73
72
71
69
69
66
65
64
63
63
58
58
57
57
52
48
48
48
46
46
45
43
42
39
37
36
33
22
19
18
17
16
16
